NAME: line_60_6
TYPE: TSP
COMMENT: line_60_6
DIMENSION: 60
EDGE_WEIGHT_TYPE: EUC_2D
NODE_COORD_SECTION
1 0.0 356.0
2 0.0 493.0
3 0.0 265.0
4 0.0 81.0
5 0.0 537.0
6 0.0 457.0
7 0.0 220.0
8 0.0 589.0
9 0.0 565.0
10 0.0 199.0
11 0.0 89.0
12 0.0 52.0
13 0.0 545.0
14 0.0 360.0
15 0.0 407.0
16 0.0 521.0
17 0.0 565.0
18 0.0 568.0
19 0.0 510.0
20 0.0 504.0
21 0.0 402.0
22 0.0 591.0
23 0.0 196.0
24 0.0 387.0
25 0.0 126.0
26 0.0 503.0
27 0.0 132.0
28 0.0 326.0
29 0.0 211.0
30 0.0 249.0
31 0.0 230.0
32 0.0 274.0
33 0.0 63.0
34 0.0 394.0
35 0.0 183.0
36 0.0 0.0
37 0.0 387.0
38 0.0 551.0
39 0.0 558.0
40 0.0 426.0
41 0.0 83.0
42 0.0 54.0
43 0.0 51.0
44 0.0 207.0
45 0.0 191.0
46 0.0 388.0
47 0.0 456.0
48 0.0 87.0
49 0.0 236.0
50 0.0 535.0
51 0.0 487.0
52 0.0 239.0
53 0.0 81.0
54 0.0 330.0
55 0.0 219.0
56 0.0 32.0
57 0.0 450.0
58 0.0 285.0
59 0.0 21.0
60 0.0 443.0
